outputs/case_421.model.txt
share_exchange_commission_agreement = False
share_exchange_authorization = False
share_exchange_other_method = False
share_exchange_other_contract = False
share_exchange_trust_agreement = False
share_exchange_agreement = False
prohibited_share_exchange = True
insured_interest_harmed = False
no_harm_to_insured_interest = True
not_proxy_solicitor_self = True
not_proxy_solicitor_others = True
vote_record_report_submitted = False
vote_evaluation_report_made = False
internal_control_system_established = True
internal_control_system_executed = True
internal_handling_system_established = True
internal_handling_system_executed = True
violate_article_143_5_or_measures = False
internal_handling_established = True
violate_article_146_2_4 = False
violate_article_146_7_loan_limit_or_resolution = False
violation_of_regulations = False
violate_article_138_1_3_5_or_2 = False
internal_control_executed = True
violate_article_146_6_1_2_3 = False
violate_article_143 = False
vote_evaluation_report_before_meeting = False
internal_handling_executed = True
internal_control_established = True
violation_internal_handling = False
violate_article_146_9 = False
violate_article_146_3_loan_guarantee = False
internal_control_and_handling_ok = True
no_proxy_solicitor = True
violate_article_146_1_2_3_5_or_146_5 = False
violate_article_138_2_4_5_7_or_138_3 = False
vote_record_report_after_meeting = False
violate_article_146_4_2_3 = False
violate_article_146_3_loan_limit = False
violate_article_146_3_2_4 = False
violate_article_146_5_1_or_documents = False
penalty = False
violation_internal_control = False
violate_article_146_1_3_5_7_or_6_or_8 = False